Test: fpga13_12_sat.cnf
Options: -no-inverting-opt -activity-look-freq=1
WARNING: for repeatability, setting FPU to use double precision
============================[ Problem Statistics ]=============================
|                                                                             |
|  Number of symmetries:           32                                         |
|  Number of invertingSyms:         0                                         |
|  Number of variables:           234                                         |
|  Number of clauses:            1242                                         |
|  Parse time:                   0.00 s                                       |
|                                                                             |
============================[ Search Statistics ]==============================
| Conflicts |          ORIGINAL         |          LEARNT          | Progress |
|           |    Vars  Clauses Literals |    Limit  Clauses Lit/Cl |          |
===============================================================================
|       100 |     234     1242     3396 |      455      272     46 |  0.002 % |
===============================================================================
restarts              : 2
conflicts             : 155            (38750 /sec)
symconflicts          : 56             (14000 /sec)
decisions             : 439            (0.00 % random) (109750 /sec)
propagations          : 10205          (2551250 /sec)
sympropagations       : 277            (69250 /sec)
conflict literals     : 7582           (0.54 % deleted)
literals     : 7582           (0.54 % deleted)

HEURISTIC USAGES
random                : 0           
activity w/ lookahead : 438         
activity no lookahead : 0           
original sp           : 0           
sym count             : 0           

Memory used           : 6.00 MB
CPU time              : 0.004 s

SATISFIABLE
